\ENCODING=ISO-8859-1
\Problem name: inst_13_cut_n2

Maximize
 obj1: 42 x0 + 79 x1 + 13 x2 + 4 x3 + 57 x4 + 50 x5
Subject To
 c0:    19 x0 + 22 x1 + 70 x2 + 100 x3 + 84 x4 + 67 x5 + s0 <= 206
 c1:    21 x0 + 42 x1 + 64 x2 + 82 x3 + 10 x4 + 10 x5 + s1 <= 68
 c2:    5 x0 + 83 x1 + 47 x2 + 42 x3 + 38 x4 + 62 x5 + s2 <= 181
 c3:    63 x0 + 19 x1 + 46 x2 + 70 x3 + 41 x4 + 56 x5 + s3 <= 68
 cut_1: 50 x0 + 15 x1 + 36 x2 + 56 x3 + 32 x4 + 45 x5 <= 54
 cut_2: 51 x0 + 15 x1 + 37 x2 + 57 x3 + 33 x4 + 46 x5 <= 55
Bounds
 0 <= x0 <= 1
 0 <= x1 <= 1
 0 <= x2 <= 1
 0 <= x3 <= 1
 0 <= x4 <= 1
 0 <= x5 <= 1
End
